(set-logic QF_LRA)
(declare-fun x() Real)
(declare-fun y() Real)
(assert (and (> x 0) (> y 0)))
(assert (or (< x 3) (> x 6)))
(assert (or (< y 3) (> y 6)))
(assert (and (> x y) (< (/ x y) 3)))
(assert (= (* x y) 29))
(check-sat)
(get-model)
